NAME : rnd96_20.tsp
TYPE : TSP
DIMENSION : 20
EDGE_WEIGHT_TYPE : EUC_2D
NODE_COORD_SECTION
0 269 279
1 343 835
2 638 545
3 738 624
4 165 696
5 44 918
6 178 92
7 935 646
8 115 961
9 929 433
10 495 430
11 636 973
12 372 550
13 128 180
14 101 95
15 444 310
16 724 923
17 272 126
18 125 895
19 461 401
